p cnf 23 11
a 1 0
e 2 0
a 3 0
e 4 5 0
a 6 0
e 7 8 9 0
a 10 11 0
e 12 13 0
a 14 15 16 17 18 19 0
e 20 21 22 23 0
-4 15 1 18 20 0
5 -23 -11 21 0
14 9 19 -3 -21 0
-17 19 23 -1 15 0
-9 -10 -4 16 0
-12 -5 13 19 0
2 -5 -8 22 9 0
-2 -10 -5 -14 -18 0
-4 20 -14 16 -21 0
3 6 -14 0
12 -22 17 13 0
